(set-logic QF_S)
(declare-fun var0 () String)
(declare-fun var1 () Int)
(declare-fun var2 () String)
(declare-fun var3 () Int)
(declare-fun var4 () Int)
(declare-fun var5 () String)
(declare-fun var6 () Int)
(declare-fun var7 () String)
(assert (str.prefixof (str.at (str.at var0 var1) (str.len "J>}.Y")) (str.substr var2 var3 var4)))
(assert (not (str.in.re (str.substr var5 113 var6) (re.+ re.allchar))))
(assert (str.suffixof (str.substr (str.at var7 5) (str.to.int var0) (str.indexof var7 var2 var6)) (str.at var5 var4)))
(assert (not (< var1 var4)))
(check-sat)